NAME : random20---8_4_2016--18:35:10
COMMENT : 20-node TSP instance randomly created on 8/4/2016 at 18:35:10
TYPE : TSP
DIMENSION : 20
EDGE_WEIGHT_TYPE : EUC_2D
NODE_COORD_SECTION
1 53.713014 68.502781
2 66.865891 97.492313
3 47.629650 91.976075
4 91.010597 15.556117
5 74.214879 58.540845
6 62.280356 78.431959
7 44.362905 42.373710
8 44.057672 72.143580
9 59.590801 31.293237
10 59.042181 20.587040
11 11.070431 18.488997
12 62.466965 63.157433
13 104.700260 69.272090
14 58.493660 46.161534
15 63.774068 59.856154
16 86.440511 21.891107
17 27.883868 107.890965
18 45.139597 71.064439
19 51.332408 63.790769
20 64.928696 65.668495
EOF